\* metodo2 *\
Maximize
Total_de_calorias: 599.63985 Alim_Leche_descremada
Subject To
Limite_inferior_de_proteinas: 41.26584 Alim_Leche_descremada >= 42.0606547315
_C1: 599.63985 Alim_Leche_descremada <= 888.174501146
_C2: 599.63985 Alim_Leche_descremada <= 843.765776088
End
